certificates/rado_a5_c222_N44.drat
-44 0
42 0
-30 0
28 0
32 0
-16 0
-40 0
-20 0
14 0
18 0
38 0
22 0
8 0
-2 0
-26 0
-6 0
-10 0
-34 0
4 0
36 0
24 0
12 0
0
